sifdecoder -A pc64.lnx.gfo -st   FERRISDC

 Problem name: FERRISDC

 Double precision version will be formed

 The objective function uses 2 linear groups
 
 There are 210 linear equality constraints
 
 There are 200 free variables
 There are 1800 variables bounded from below and above 
 There are 200 fixed variables
 
 
 File successfully decoded
 CUTEST: tools (double precision version) compiled successfully
 CUTEst: ipopt (double precision version) compiled successfully

******************************************************************************
This program contains Ipopt, a library for large-scale nonlinear optimization.
 Ipopt is released as open source code under the Eclipse Public License (EPL).
         For more information visit http://projects.coin-or.org/Ipopt
******************************************************************************

This is Ipopt version trunk, running with linear solver ma57.

Number of nonzeros in equality constraint Jacobian...:     5800
Number of nonzeros in inequality constraint Jacobian.:        0
Number of nonzeros in Lagrangian Hessian.............:   187901

Total number of variables............................:     2000
                     variables with only lower bounds:        0
                variables with lower and upper bounds:     1800
                     variables with only upper bounds:        0
Total number of equality constraints.................:      210
Total number of inequality constraints...............:        0
        inequality constraints with only lower bounds:        0
   inequality constraints with lower and upper bounds:        0
        inequality constraints with only upper bounds:        0

iter    objective    inf_pr   inf_du lg(mu)  ||d||  lg(rg) alpha_du alpha_pr  ls
   0  2.1037043e-02 2.00e+00 8.36e-02  -1.0 0.00e+00    -  0.00e+00 0.00e+00   0
   1  3.3840836e+00 1.65e-14 4.47e+00  -1.0 9.60e-01    -  1.63e-01 1.00e+00f  1
   2  7.4784054e-01 1.40e-14 1.96e-01  -1.0 1.11e+00    -  8.19e-01 1.00e+00f  1
   3  1.7667110e-01 1.22e-14 3.71e-02  -1.7 4.46e-01    -  8.82e-01 1.00e+00f  1
   4  6.6320091e-02 7.08e-15 3.82e-03  -2.5 2.13e-01    -  9.81e-01 1.00e+00f  1
   5  1.0581359e-02 2.06e-14 1.08e-03  -3.8 1.69e-01    -  9.75e-01 1.00e+00f  1
   6  3.8965290e-03 1.78e-10 6.18e-04  -3.8 1.22e+00    -  9.01e-01 1.00e+00f  1
   7  9.7826367e-04 1.99e-11 9.71e-04  -5.7 2.75e-01    -  8.09e-01 1.00e+00f  1
   8  2.9146258e-04 7.00e-12 2.14e-04  -5.7 2.74e-01    -  8.58e-01 1.00e+00f  1
   9 -2.2358105e-05 7.73e-14 6.36e-16  -5.7 6.43e-01    -  1.00e+00 1.00e+00f  1
iter    objective    inf_pr   inf_du lg(mu)  ||d||  lg(rg) alpha_du alpha_pr  ls
  10 -1.4338964e-04 7.47e-12 4.54e-05  -8.6 5.47e-01    -  5.97e-01 1.00e+00f  1
  11 -1.7736401e-04 6.30e-12 1.24e-05  -8.6 6.84e-01    -  7.86e-01 1.00e+00h  1
  12 -1.9872354e-04 3.02e-12 7.00e-06  -8.6 3.11e+00    -  4.52e-01 5.20e-01h  1
  13 -1.9964262e-04 2.93e-12 2.70e-06  -8.6 1.38e+00    -  6.06e-01 3.14e-02f  1
  14 -2.1553054e-04 1.39e-12 1.38e-06  -8.6 1.85e+00    -  4.67e-01 5.25e-01f  1
  15 -2.2122366e-04 8.98e-07 8.77e-07  -8.6 1.69e+00    -  6.32e-01 4.07e-01f  1
  16 -2.2649352e-04 3.27e-07 2.73e-07  -8.6 1.64e+00    -  5.09e-01 6.36e-01f  1
  17 -2.2942859e-04 1.06e-08 1.76e-07  -8.6 1.69e+00    -  7.16e-01 9.68e-01f  1
  18 -2.2983085e-04 8.89e-14 1.95e-13  -8.6 1.11e+00    -  1.00e+00 1.00e+00f  1

Number of Iterations....: 18

                                   (scaled)                 (unscaled)
Objective...............:  -2.2983085002228876e-04   -2.2983085002228876e-04
Dual infeasibility......:   1.9528982499460472e-13    1.9528982499460472e-13
Constraint violation....:   8.8928864272475039e-14    8.8928864272475039e-14
Complementarity.........:   5.2689125396469894e-09    5.2689125396469894e-09
Overall NLP error.......:   5.2689125396469894e-09    5.2689125396469894e-09


Number of objective function evaluations             = 19
Number of objective gradient evaluations             = 19
Number of equality constraint evaluations            = 19
Number of inequality constraint evaluations          = 0
Number of equality constraint Jacobian evaluations   = 19
Number of inequality constraint Jacobian evaluations = 0
Number of Lagrangian Hessian evaluations             = 18
Total CPU secs in IPOPT (w/o function evaluations)   =      7.647
Total CPU secs in NLP function evaluations           =      2.752

EXIT: Optimal Solution Found.

************************ CUTEst statistics ************************


 Package used            :  IPOPT
 Problem                 :  FERRISDC  
 # variables             =            2200
 # constraints           =             210
 # objective functions   =        0.3900000E+02
 # objective gradients   =        0.2000000E+02
 # objective Hessians    =        0.1900000E+02
 # Hessian-vector prdct  =        0.0000000E+00
 # constraints functions =        0.4000000E+02
 # constraints gradients =        0.2100000E+02
 # constraints Hessians  =        0.1900000E+02
 Exit code               =               0
 Final f                 =       -2.2983085002228876D-04
 Bounds feasibility      =        0.0000000000000000D+00
 Set up time             =            0.51 seconds
 Solve time              =           20.41 seconds


******************************************************************

